! Solving for graph ../../../benchmarks/abp/Q-494_bus.mtx.rnd
! Target value is set to 110
 ! --------------------------------------------------- CP Optimizer 22.2.0.0 --
 ! Minimization problem - 495 variables, 1080 constraints, 1 phase
 ! TimeLimit            = 1800
 ! LogVerbosity         = Terse
 ! Initial process time : 0.02s (0.02s extraction + 0.00s propagation)
 !  . Log search space  : 4429.4 (before), 4429.4 (after)
 !  . Memory usage      : 723.5 kB (before), 723.5 kB (after)
 ! Using parallel search with 8 workers.
 ! ----------------------------------------------------------------------------
 !          Best Branches  Non-fixed    W       Branch decision
                        0        495                 -
 + New bound is 1
                        0        495    1   F        -
 + New bound is 111
                        2        494    1   F     1 != _int57
 + New bound is 112
 *           221      497  0.09s        1      (gap is 49.32%)
             221     4848          1    1   F        -
 + New bound is 167 (gap is 24.43%)
             221     4848          1    1   F        -
 + New bound is 195 (gap is 11.76%)
             221     4848          1    1   F        -
 + New bound is 209 (gap is 5.43%)
             221     9848        495    1   F        -
 + New bound is 210 (gap is 4.98%)
             221    10066        495    1            -
 + New bound is 221 (gap is 0.00%)
 ! ----------------------------------------------------------------------------
 ! Search completed, 1 solution found.
 ! Best objective         : 221 (optimal - effective tol. is 0)
 ! Best bound             : 221
 ! ----------------------------------------------------------------------------
 ! Number of branches     : 168154
 ! Number of fails        : 78170
 ! Total memory usage     : 34.3 MB (34.0 MB CP Optimizer + 0.4 MB Concert)
 ! Time spent in solve    : 0.99s (0.97s engine + 0.02s extraction)
 ! Search speed (br. / s) : 173354.6
 ! ----------------------------------------------------------------------------
! --------------------------------------------------------
! Best span = 221
! Labeling: 221 1 111 111 1 1 1 1 1 221 1 1 1 1 221 1 111 1 1 111 111 1 1 1 221 1 221 1 1 111 111 1 1 1 111 1 1 1 111 111 111 111 111 1 111 1 111 1 111 111 1 111 111 111 111 111 1 111 1 1 111 111 1 111 1 221 111 1 111 1 111 111 1 1 1 1 1 111 1 111 111 111 111 1 111 1 1 111 111 111 111 111 111 1 1 1 111 111 111 111 111 1 221 1 111 111 1 111 111 1 111 111 111 1 111 1 111 111 1 1 111 1 111 111 111 111 1 111 111 111 111 1 1 111 111 111 111 1 111 111 111 221 1 1 111 1 111 1 1 1 1 111 221 1 221 1 111 1 1 111 1 1 1 111 221 1 1 111 1 1 1 111 111 111 1 111 1 111 111 221 1 111 111 111 1 111 111 1 111 111 1 1 111 1 1 1 111 1 1 1 1 1 1 111 111 1 111 111 111 221 221 111 1 111 1 111 221 1 1 1 111 1 1 221 1 1 111 1 1 1 221 1 111 111 111 111 111 1 111 1 1 111 1 111 111 1 111 111 1 1 1 1 221 111 1 1 1 111 1 1 1 111 1 111 221 1 111 1 111 111 111 1 1 1 221 111 1 111 1 221 1 111 1 111 111 1 1 1 1 1 1 111 221 1 111 1 111 1 1 111 111 1 1 111 1 111 1 111 111 1 111 111 1 1 111 1 1 1 1 221 1 1 221 221 111 111 221 111 1 221 111 111 111 1 1 111 1 1 1 111 111 111 111 1 1 1 1 1 111 111 221 111 1 1 111 221 1 111 1 111 1 1 1 1 111 1 111 111 221 111 1 111 1 1 111 111 111 1 111 1 221 1 1 111 111 111 111 111 1 111 1 1 221 1 111 1 111 221 111 111 111 1 1 111 111 111 111 1 111 1 111 111 1 1 1 111 111 1 1 111 1 1 111 1 1 111 111 221 111 111 1 221 111 111 111 111 1 1 111 1 111 221 111 1 1 111 221 1 111 111 1 111 111 1 111 111 1 221 1 111 111 111 1 1 111 221 1 111 111 111 1 1 111 111 1 111 1 1 111 1 111 221 1 1 111 1 1 111 111 111 111 1 1 1 
! -------------------------------------------------------- 
